
Presolve eliminates 4222512 constraints and 4215312 variables.
Adjusted problem:
1820688 variables:
	1808688 binary variables
	12000 linear variables
1838038 constraints, all linear; 14381952 nonzeros
	24502 equality constraints
	1813536 inequality constraints
1 linear objective; 1796688 nonzeros.

Gurobi 9.1.2: mipgap 0.01
outlev 1
timelim 3600
Gurobi Optimizer version 9.1.2 build v9.1.2rc0 (linux64)
Thread count: 4 physical cores, 4 logical processors, using up to 4 threads
Optimize a model with 1838038 rows, 1820688 columns and 14381952 nonzeros
Model fingerprint: 0x83a2402b
Variable types: 12000 continuous, 1808688 integer (1808688 binary)
Coefficient statistics:
  Matrix range     [8e-02, 1e+02]
  Objective range  [4e+01, 5e+03]
  Bounds range     [1e+00, 1e+02]
  RHS range        [1e+00, 1e+02]
Presolve removed 0 rows and 0 columns (presolve time = 8s) ...
Presolve removed 0 rows and 0 columns (presolve time = 36s) ...
Presolve removed 0 rows and 0 columns (presolve time = 40s) ...
Presolve removed 0 rows and 0 columns (presolve time = 53s) ...
Presolve removed 0 rows and 0 columns (presolve time = 55s) ...
Presolve removed 0 rows and 0 columns (presolve time = 60s) ...
Presolve removed 0 rows and 0 columns (presolve time = 65s) ...
Presolve removed 0 rows and 0 columns (presolve time = 70s) ...
Presolve removed 0 rows and 0 columns (presolve time = 75s) ...
Presolve removed 0 rows and 0 columns (presolve time = 80s) ...
Presolve removed 0 rows and 0 columns (presolve time = 85s) ...
Presolve removed 24000 rows and 0 columns (presolve time = 90s) ...
Presolve removed 24000 rows and 0 columns (presolve time = 107s) ...
Presolve removed 24000 rows and 0 columns (presolve time = 118s) ...
Presolve removed 24000 rows and 0 columns (presolve time = 120s) ...
Presolve removed 24000 rows and 0 columns (presolve time = 148s) ...
Presolve removed 24000 rows and 0 columns (presolve time = 170s) ...
Presolve removed 24000 rows and 0 columns
Presolve time: 169.94s
Presolved: 1814038 rows, 1820688 columns, 9014688 nonzeros
Variable types: 12000 continuous, 1808688 integer (1808688 binary)

Deterministic concurrent LP optimizer: primal simplex, dual simplex, and barrier
Showing barrier log only...

Root barrier log...

Elapsed ordering time = 106s
Elapsed ordering time = 110s
Elapsed ordering time = 115s
Elapsed ordering time = 120s
Elapsed ordering time = 125s
Elapsed ordering time = 130s
Elapsed ordering time = 135s
Elapsed ordering time = 140s
Elapsed ordering time = 145s
Elapsed ordering time = 150s
Elapsed ordering time = 155s
Elapsed ordering time = 160s
Elapsed ordering time = 165s
Elapsed ordering time = 170s
Elapsed ordering time = 175s
Elapsed ordering time = 180s
Elapsed ordering time = 185s
Elapsed ordering time = 190s
Elapsed ordering time = 195s
Elapsed ordering time = 200s
Elapsed ordering time = 205s
Elapsed ordering time = 210s
Elapsed ordering time = 215s
Elapsed ordering time = 220s
Elapsed ordering time = 225s
Elapsed ordering time = 230s
Elapsed ordering time = 235s
Elapsed ordering time = 240s
Elapsed ordering time = 245s
Elapsed ordering time = 250s
Elapsed ordering time = 255s
Elapsed ordering time = 260s
Elapsed ordering time = 265s
Elapsed ordering time = 270s
Elapsed ordering time = 275s
Elapsed ordering time = 280s
Elapsed ordering time = 285s
Elapsed ordering time = 290s
Elapsed ordering time = 295s
Elapsed ordering time = 300s
Elapsed ordering time = 305s
Elapsed ordering time = 310s
Elapsed ordering time = 315s
Elapsed ordering time = 320s
Elapsed ordering time = 325s
Elapsed ordering time = 330s
Elapsed ordering time = 335s
Elapsed ordering time = 340s
Elapsed ordering time = 345s
Elapsed ordering time = 350s
Elapsed ordering time = 355s
Elapsed ordering time = 360s
Elapsed ordering time = 365s
Elapsed ordering time = 370s
Elapsed ordering time = 375s
Elapsed ordering time = 380s
Elapsed ordering time = 385s
Elapsed ordering time = 390s
Elapsed ordering time = 395s
Elapsed ordering time = 400s
Elapsed ordering time = 405s
Elapsed ordering time = 410s
Elapsed ordering time = 415s
Elapsed ordering time = 420s
Elapsed ordering time = 425s
Elapsed ordering time = 430s
Elapsed ordering time = 435s
Elapsed ordering time = 440s
Elapsed ordering time = 445s
Elapsed ordering time = 450s
Elapsed ordering time = 455s
Elapsed ordering time = 460s
Elapsed ordering time = 465s
Elapsed ordering time = 470s
Elapsed ordering time = 475s
Elapsed ordering time = 480s
Elapsed ordering time = 485s
Elapsed ordering time = 490s
Elapsed ordering time = 495s
Elapsed ordering time = 500s
Elapsed ordering time = 505s
Elapsed ordering time = 510s
Elapsed ordering time = 515s
Elapsed ordering time = 520s
Elapsed ordering time = 525s
Elapsed ordering time = 530s
Elapsed ordering time = 535s
Elapsed ordering time = 540s
Elapsed ordering time = 545s
Elapsed ordering time = 550s
Elapsed ordering time = 555s
Elapsed ordering time = 560s
Elapsed ordering time = 565s
Elapsed ordering time = 570s
Elapsed ordering time = 575s
<BREAK>
